(set-logic QF_LRA)
(declare-fun T1 () Real )
(declare-fun T2 () Real )
(declare-fun T3 () Real )
(declare-fun T4 () Real )
(declare-fun T5 () Real )
(declare-fun T6 () Real )
(declare-fun T7 () Real )
(declare-fun T8 () Real )
(declare-fun T9 () Real )
(declare-fun T10 () Real )
(declare-fun Z () Real )
(declare-fun k () Real )
(assert (let
(( $goal (>= Z k) ))
(let
((
$phi ( and 
(or ( <= ( + T1 100 ) T2 ) ( <= ( + T2 35 ) T1 ) )
(or ( <= ( + T1 199 )  ( + T2 35 ) ) ( <= ( + T2 52 )( + T1 100 ) ) )
(or ( <= ( + T1 254 )  ( + T2 52 ) ) ( <= ( + T2 84 )( + T1 199 ) ) )
(or ( <= ( + T1 305 )  ( + T2 84 ) ) ( <= ( + T2 184 )( + T1 254 ) ) )
(or ( <= ( + T1 365 )  ( + T2 184 ) ) ( <= ( + T2 265 )( + T1 305 ) ) )
(or ( <= ( + T1 384 )  ( + T2 265 ) ) ( <= ( + T2 321 )( + T1 365 ) ) )
(or ( <= ( + T1 397 )  ( + T2 321 ) ) ( <= ( + T2 385 )( + T1 384 ) ) )
(or ( <= ( + T1 406 )  ( + T2 385 ) ) ( <= ( + T2 429 )( + T1 397 ) ) )
(or ( <= ( + T1 100 ) T3 ) ( <= ( + T3 82 ) T1 ) )
(or ( <= ( + T1 199 )  ( + T3 82 ) ) ( <= ( + T3 110 )( + T1 100 ) ) )
(or ( <= ( + T1 254 )  ( + T3 110 ) ) ( <= ( + T3 135 )( + T1 199 ) ) )
(or ( <= ( + T1 305 )  ( + T3 135 ) ) ( <= ( + T3 192 )( + T1 254 ) ) )
(or ( <= ( + T1 365 )  ( + T3 192 ) ) ( <= ( + T3 277 )( + T1 305 ) ) )
(or ( <= ( + T1 384 )  ( + T3 277 ) ) ( <= ( + T3 375 )( + T1 365 ) ) )
(or ( <= ( + T1 397 )  ( + T3 375 ) ) ( <= ( + T3 399 )( + T1 384 ) ) )
(or ( <= ( + T1 406 )  ( + T3 399 ) ) ( <= ( + T3 414 )( + T1 397 ) ) )
(or ( <= ( + T1 100 ) T4 ) ( <= ( + T4 88 ) T1 ) )
(or ( <= ( + T1 199 )  ( + T4 88 ) ) ( <= ( + T4 169 )( + T1 100 ) ) )
(or ( <= ( + T1 254 )  ( + T4 169 ) ) ( <= ( + T4 197 )( + T1 199 ) ) )
(or ( <= ( + T1 305 )  ( + T4 197 ) ) ( <= ( + T4 242 )( + T1 254 ) ) )
(or ( <= ( + T1 365 )  ( + T4 242 ) ) ( <= ( + T4 267 )( + T1 305 ) ) )
(or ( <= ( + T1 384 )  ( + T4 267 ) ) ( <= ( + T4 308 )( + T1 365 ) ) )
(or ( <= ( + T1 397 )  ( + T4 308 ) ) ( <= ( + T4 315 )( + T1 384 ) ) )
(or ( <= ( + T1 406 )  ( + T4 315 ) ) ( <= ( + T4 339 )( + T1 397 ) ) )
(or ( <= ( + T1 100 ) T5 ) ( <= ( + T5 92 ) T1 ) )
(or ( <= ( + T1 199 )  ( + T5 92 ) ) ( <= ( + T5 153 )( + T1 100 ) ) )
(or ( <= ( + T1 254 )  ( + T5 153 ) ) ( <= ( + T5 228 )( + T1 199 ) ) )
(or ( <= ( + T1 305 )  ( + T5 228 ) ) ( <= ( + T5 279 )( + T1 254 ) ) )
(or ( <= ( + T1 365 )  ( + T5 279 ) ) ( <= ( + T5 358 )( + T1 305 ) ) )
(or ( <= ( + T1 384 )  ( + T5 358 ) ) ( <= ( + T5 397 )( + T1 365 ) ) )
(or ( <= ( + T1 397 )  ( + T5 397 ) ) ( <= ( + T5 456 )( + T1 384 ) ) )
(or ( <= ( + T1 406 )  ( + T5 456 ) ) ( <= ( + T5 469 )( + T1 397 ) ) )
(or ( <= ( + T1 100 ) T6 ) ( <= ( + T6 55 ) T1 ) )
(or ( <= ( + T1 199 )  ( + T6 55 ) ) ( <= ( + T6 98 )( + T1 100 ) ) )
(or ( <= ( + T1 254 )  ( + T6 98 ) ) ( <= ( + T6 162 )( + T1 199 ) ) )
(or ( <= ( + T1 305 )  ( + T6 162 ) ) ( <= ( + T6 249 )( + T1 254 ) ) )
(or ( <= ( + T1 365 )  ( + T6 249 ) ) ( <= ( + T6 347 )( + T1 305 ) ) )
(or ( <= ( + T1 384 )  ( + T6 347 ) ) ( <= ( + T6 427 )( + T1 365 ) ) )
(or ( <= ( + T1 397 )  ( + T6 427 ) ) ( <= ( + T6 458 )( + T1 384 ) ) )
(or ( <= ( + T1 406 )  ( + T6 458 ) ) ( <= ( + T6 489 )( + T1 397 ) ) )
(or ( <= ( + T1 100 ) T7 ) ( <= ( + T7 7 ) T1 ) )
(or ( <= ( + T1 199 )  ( + T7 7 ) ) ( <= ( + T7 14 )( + T1 100 ) ) )
(or ( <= ( + T1 254 )  ( + T7 14 ) ) ( <= ( + T7 53 )( + T1 199 ) ) )
(or ( <= ( + T1 305 )  ( + T7 53 ) ) ( <= ( + T7 144 )( + T1 254 ) ) )
(or ( <= ( + T1 365 )  ( + T7 144 ) ) ( <= ( + T7 148 )( + T1 305 ) ) )
(or ( <= ( + T1 384 )  ( + T7 148 ) ) ( <= ( + T7 211 )( + T1 365 ) ) )
(or ( <= ( + T1 397 )  ( + T7 211 ) ) ( <= ( + T7 216 )( + T1 384 ) ) )
(or ( <= ( + T1 406 )  ( + T7 216 ) ) ( <= ( + T7 259 )( + T1 397 ) ) )
(or ( <= ( + T1 100 ) T8 ) ( <= ( + T8 95 ) T1 ) )
(or ( <= ( + T1 199 )  ( + T8 95 ) ) ( <= ( + T8 179 )( + T1 100 ) ) )
(or ( <= ( + T1 254 )  ( + T8 179 ) ) ( <= ( + T8 219 )( + T1 199 ) ) )
(or ( <= ( + T1 305 )  ( + T8 219 ) ) ( <= ( + T8 239 )( + T1 254 ) ) )
(or ( <= ( + T1 365 )  ( + T8 239 ) ) ( <= ( + T8 315 )( + T1 305 ) ) )
(or ( <= ( + T1 384 )  ( + T8 315 ) ) ( <= ( + T8 361 )( + T1 365 ) ) )
(or ( <= ( + T1 397 )  ( + T8 361 ) ) ( <= ( + T8 456 )( + T1 384 ) ) )
(or ( <= ( + T1 406 )  ( + T8 456 ) ) ( <= ( + T8 523 )( + T1 397 ) ) )
(or ( <= ( + T1 100 ) T9 ) ( <= ( + T9 58 ) T1 ) )
(or ( <= ( + T1 199 )  ( + T9 58 ) ) ( <= ( + T9 79 )( + T1 100 ) ) )
(or ( <= ( + T1 254 )  ( + T9 79 ) ) ( <= ( + T9 148 )( + T1 199 ) ) )
(or ( <= ( + T1 305 )  ( + T9 148 ) ) ( <= ( + T9 184 )( + T1 254 ) ) )
(or ( <= ( + T1 365 )  ( + T9 184 ) ) ( <= ( + T9 244 )( + T1 305 ) ) )
(or ( <= ( + T1 384 )  ( + T9 244 ) ) ( <= ( + T9 324 )( + T1 365 ) ) )
(or ( <= ( + T1 397 )  ( + T9 324 ) ) ( <= ( + T9 325 )( + T1 384 ) ) )
(or ( <= ( + T1 406 )  ( + T9 325 ) ) ( <= ( + T9 391 )( + T1 397 ) ) )
(or ( <= ( + T1 100 ) T10 ) ( <= ( + T10 22 ) T1 ) )
(or ( <= ( + T1 199 )  ( + T10 22 ) ) ( <= ( + T10 38 )( + T1 100 ) ) )
(or ( <= ( + T1 254 )  ( + T10 38 ) ) ( <= ( + T10 43 )( + T1 199 ) ) )
(or ( <= ( + T1 305 )  ( + T10 43 ) ) ( <= ( + T10 114 )( + T1 254 ) ) )
(or ( <= ( + T1 365 )  ( + T10 114 ) ) ( <= ( + T10 209 )( + T1 305 ) ) )
(or ( <= ( + T1 384 )  ( + T10 209 ) ) ( <= ( + T10 296 )( + T1 365 ) ) )
(or ( <= ( + T1 397 )  ( + T10 296 ) ) ( <= ( + T10 298 )( + T1 384 ) ) )
(or ( <= ( + T1 406 )  ( + T10 298 ) ) ( <= ( + T10 351 )( + T1 397 ) ) )
(or ( <= ( + T2 35 ) T3 ) ( <= ( + T3 82 ) T2 ) )
(or ( <= ( + T2 52 )  ( + T3 82 ) ) ( <= ( + T3 110 )( + T2 35 ) ) )
(or ( <= ( + T2 84 )  ( + T3 110 ) ) ( <= ( + T3 135 )( + T2 52 ) ) )
(or ( <= ( + T2 184 )  ( + T3 135 ) ) ( <= ( + T3 192 )( + T2 84 ) ) )
(or ( <= ( + T2 265 )  ( + T3 192 ) ) ( <= ( + T3 277 )( + T2 184 ) ) )
(or ( <= ( + T2 321 )  ( + T3 277 ) ) ( <= ( + T3 375 )( + T2 265 ) ) )
(or ( <= ( + T2 385 )  ( + T3 375 ) ) ( <= ( + T3 399 )( + T2 321 ) ) )
(or ( <= ( + T2 429 )  ( + T3 399 ) ) ( <= ( + T3 414 )( + T2 385 ) ) )
(or ( <= ( + T2 35 ) T4 ) ( <= ( + T4 88 ) T2 ) )
(or ( <= ( + T2 52 )  ( + T4 88 ) ) ( <= ( + T4 169 )( + T2 35 ) ) )
(or ( <= ( + T2 84 )  ( + T4 169 ) ) ( <= ( + T4 197 )( + T2 52 ) ) )
(or ( <= ( + T2 184 )  ( + T4 197 ) ) ( <= ( + T4 242 )( + T2 84 ) ) )
(or ( <= ( + T2 265 )  ( + T4 242 ) ) ( <= ( + T4 267 )( + T2 184 ) ) )
(or ( <= ( + T2 321 )  ( + T4 267 ) ) ( <= ( + T4 308 )( + T2 265 ) ) )
(or ( <= ( + T2 385 )  ( + T4 308 ) ) ( <= ( + T4 315 )( + T2 321 ) ) )
(or ( <= ( + T2 429 )  ( + T4 315 ) ) ( <= ( + T4 339 )( + T2 385 ) ) )
(or ( <= ( + T2 35 ) T5 ) ( <= ( + T5 92 ) T2 ) )
(or ( <= ( + T2 52 )  ( + T5 92 ) ) ( <= ( + T5 153 )( + T2 35 ) ) )
(or ( <= ( + T2 84 )  ( + T5 153 ) ) ( <= ( + T5 228 )( + T2 52 ) ) )
(or ( <= ( + T2 184 )  ( + T5 228 ) ) ( <= ( + T5 279 )( + T2 84 ) ) )
(or ( <= ( + T2 265 )  ( + T5 279 ) ) ( <= ( + T5 358 )( + T2 184 ) ) )
(or ( <= ( + T2 321 )  ( + T5 358 ) ) ( <= ( + T5 397 )( + T2 265 ) ) )
(or ( <= ( + T2 385 )  ( + T5 397 ) ) ( <= ( + T5 456 )( + T2 321 ) ) )
(or ( <= ( + T2 429 )  ( + T5 456 ) ) ( <= ( + T5 469 )( + T2 385 ) ) )
(or ( <= ( + T2 35 ) T6 ) ( <= ( + T6 55 ) T2 ) )
(or ( <= ( + T2 52 )  ( + T6 55 ) ) ( <= ( + T6 98 )( + T2 35 ) ) )
(or ( <= ( + T2 84 )  ( + T6 98 ) ) ( <= ( + T6 162 )( + T2 52 ) ) )
(or ( <= ( + T2 184 )  ( + T6 162 ) ) ( <= ( + T6 249 )( + T2 84 ) ) )
(or ( <= ( + T2 265 )  ( + T6 249 ) ) ( <= ( + T6 347 )( + T2 184 ) ) )
(or ( <= ( + T2 321 )  ( + T6 347 ) ) ( <= ( + T6 427 )( + T2 265 ) ) )
(or ( <= ( + T2 385 )  ( + T6 427 ) ) ( <= ( + T6 458 )( + T2 321 ) ) )
(or ( <= ( + T2 429 )  ( + T6 458 ) ) ( <= ( + T6 489 )( + T2 385 ) ) )
(or ( <= ( + T2 35 ) T7 ) ( <= ( + T7 7 ) T2 ) )
(or ( <= ( + T2 52 )  ( + T7 7 ) ) ( <= ( + T7 14 )( + T2 35 ) ) )
(or ( <= ( + T2 84 )  ( + T7 14 ) ) ( <= ( + T7 53 )( + T2 52 ) ) )
(or ( <= ( + T2 184 )  ( + T7 53 ) ) ( <= ( + T7 144 )( + T2 84 ) ) )
(or ( <= ( + T2 265 )  ( + T7 144 ) ) ( <= ( + T7 148 )( + T2 184 ) ) )
(or ( <= ( + T2 321 )  ( + T7 148 ) ) ( <= ( + T7 211 )( + T2 265 ) ) )
(or ( <= ( + T2 385 )  ( + T7 211 ) ) ( <= ( + T7 216 )( + T2 321 ) ) )
(or ( <= ( + T2 429 )  ( + T7 216 ) ) ( <= ( + T7 259 )( + T2 385 ) ) )
(or ( <= ( + T2 35 ) T8 ) ( <= ( + T8 95 ) T2 ) )
(or ( <= ( + T2 52 )  ( + T8 95 ) ) ( <= ( + T8 179 )( + T2 35 ) ) )
(or ( <= ( + T2 84 )  ( + T8 179 ) ) ( <= ( + T8 219 )( + T2 52 ) ) )
(or ( <= ( + T2 184 )  ( + T8 219 ) ) ( <= ( + T8 239 )( + T2 84 ) ) )
(or ( <= ( + T2 265 )  ( + T8 239 ) ) ( <= ( + T8 315 )( + T2 184 ) ) )
(or ( <= ( + T2 321 )  ( + T8 315 ) ) ( <= ( + T8 361 )( + T2 265 ) ) )
(or ( <= ( + T2 385 )  ( + T8 361 ) ) ( <= ( + T8 456 )( + T2 321 ) ) )
(or ( <= ( + T2 429 )  ( + T8 456 ) ) ( <= ( + T8 523 )( + T2 385 ) ) )
(or ( <= ( + T2 35 ) T9 ) ( <= ( + T9 58 ) T2 ) )
(or ( <= ( + T2 52 )  ( + T9 58 ) ) ( <= ( + T9 79 )( + T2 35 ) ) )
(or ( <= ( + T2 84 )  ( + T9 79 ) ) ( <= ( + T9 148 )( + T2 52 ) ) )
(or ( <= ( + T2 184 )  ( + T9 148 ) ) ( <= ( + T9 184 )( + T2 84 ) ) )
(or ( <= ( + T2 265 )  ( + T9 184 ) ) ( <= ( + T9 244 )( + T2 184 ) ) )
(or ( <= ( + T2 321 )  ( + T9 244 ) ) ( <= ( + T9 324 )( + T2 265 ) ) )
(or ( <= ( + T2 385 )  ( + T9 324 ) ) ( <= ( + T9 325 )( + T2 321 ) ) )
(or ( <= ( + T2 429 )  ( + T9 325 ) ) ( <= ( + T9 391 )( + T2 385 ) ) )
(or ( <= ( + T2 35 ) T10 ) ( <= ( + T10 22 ) T2 ) )
(or ( <= ( + T2 52 )  ( + T10 22 ) ) ( <= ( + T10 38 )( + T2 35 ) ) )
(or ( <= ( + T2 84 )  ( + T10 38 ) ) ( <= ( + T10 43 )( + T2 52 ) ) )
(or ( <= ( + T2 184 )  ( + T10 43 ) ) ( <= ( + T10 114 )( + T2 84 ) ) )
(or ( <= ( + T2 265 )  ( + T10 114 ) ) ( <= ( + T10 209 )( + T2 184 ) ) )
(or ( <= ( + T2 321 )  ( + T10 209 ) ) ( <= ( + T10 296 )( + T2 265 ) ) )
(or ( <= ( + T2 385 )  ( + T10 296 ) ) ( <= ( + T10 298 )( + T2 321 ) ) )
(or ( <= ( + T2 429 )  ( + T10 298 ) ) ( <= ( + T10 351 )( + T2 385 ) ) )
(or ( <= ( + T3 82 ) T4 ) ( <= ( + T4 88 ) T3 ) )
(or ( <= ( + T3 110 )  ( + T4 88 ) ) ( <= ( + T4 169 )( + T3 82 ) ) )
(or ( <= ( + T3 135 )  ( + T4 169 ) ) ( <= ( + T4 197 )( + T3 110 ) ) )
(or ( <= ( + T3 192 )  ( + T4 197 ) ) ( <= ( + T4 242 )( + T3 135 ) ) )
(or ( <= ( + T3 277 )  ( + T4 242 ) ) ( <= ( + T4 267 )( + T3 192 ) ) )
(or ( <= ( + T3 375 )  ( + T4 267 ) ) ( <= ( + T4 308 )( + T3 277 ) ) )
(or ( <= ( + T3 399 )  ( + T4 308 ) ) ( <= ( + T4 315 )( + T3 375 ) ) )
(or ( <= ( + T3 414 )  ( + T4 315 ) ) ( <= ( + T4 339 )( + T3 399 ) ) )
(or ( <= ( + T3 82 ) T5 ) ( <= ( + T5 92 ) T3 ) )
(or ( <= ( + T3 110 )  ( + T5 92 ) ) ( <= ( + T5 153 )( + T3 82 ) ) )
(or ( <= ( + T3 135 )  ( + T5 153 ) ) ( <= ( + T5 228 )( + T3 110 ) ) )
(or ( <= ( + T3 192 )  ( + T5 228 ) ) ( <= ( + T5 279 )( + T3 135 ) ) )
(or ( <= ( + T3 277 )  ( + T5 279 ) ) ( <= ( + T5 358 )( + T3 192 ) ) )
(or ( <= ( + T3 375 )  ( + T5 358 ) ) ( <= ( + T5 397 )( + T3 277 ) ) )
(or ( <= ( + T3 399 )  ( + T5 397 ) ) ( <= ( + T5 456 )( + T3 375 ) ) )
(or ( <= ( + T3 414 )  ( + T5 456 ) ) ( <= ( + T5 469 )( + T3 399 ) ) )
(or ( <= ( + T3 82 ) T6 ) ( <= ( + T6 55 ) T3 ) )
(or ( <= ( + T3 110 )  ( + T6 55 ) ) ( <= ( + T6 98 )( + T3 82 ) ) )
(or ( <= ( + T3 135 )  ( + T6 98 ) ) ( <= ( + T6 162 )( + T3 110 ) ) )
(or ( <= ( + T3 192 )  ( + T6 162 ) ) ( <= ( + T6 249 )( + T3 135 ) ) )
(or ( <= ( + T3 277 )  ( + T6 249 ) ) ( <= ( + T6 347 )( + T3 192 ) ) )
(or ( <= ( + T3 375 )  ( + T6 347 ) ) ( <= ( + T6 427 )( + T3 277 ) ) )
(or ( <= ( + T3 399 )  ( + T6 427 ) ) ( <= ( + T6 458 )( + T3 375 ) ) )
(or ( <= ( + T3 414 )  ( + T6 458 ) ) ( <= ( + T6 489 )( + T3 399 ) ) )
(or ( <= ( + T3 82 ) T7 ) ( <= ( + T7 7 ) T3 ) )
(or ( <= ( + T3 110 )  ( + T7 7 ) ) ( <= ( + T7 14 )( + T3 82 ) ) )
(or ( <= ( + T3 135 )  ( + T7 14 ) ) ( <= ( + T7 53 )( + T3 110 ) ) )
(or ( <= ( + T3 192 )  ( + T7 53 ) ) ( <= ( + T7 144 )( + T3 135 ) ) )
(or ( <= ( + T3 277 )  ( + T7 144 ) ) ( <= ( + T7 148 )( + T3 192 ) ) )
(or ( <= ( + T3 375 )  ( + T7 148 ) ) ( <= ( + T7 211 )( + T3 277 ) ) )
(or ( <= ( + T3 399 )  ( + T7 211 ) ) ( <= ( + T7 216 )( + T3 375 ) ) )
(or ( <= ( + T3 414 )  ( + T7 216 ) ) ( <= ( + T7 259 )( + T3 399 ) ) )
(or ( <= ( + T3 82 ) T8 ) ( <= ( + T8 95 ) T3 ) )
(or ( <= ( + T3 110 )  ( + T8 95 ) ) ( <= ( + T8 179 )( + T3 82 ) ) )
(or ( <= ( + T3 135 )  ( + T8 179 ) ) ( <= ( + T8 219 )( + T3 110 ) ) )
(or ( <= ( + T3 192 )  ( + T8 219 ) ) ( <= ( + T8 239 )( + T3 135 ) ) )
(or ( <= ( + T3 277 )  ( + T8 239 ) ) ( <= ( + T8 315 )( + T3 192 ) ) )
(or ( <= ( + T3 375 )  ( + T8 315 ) ) ( <= ( + T8 361 )( + T3 277 ) ) )
(or ( <= ( + T3 399 )  ( + T8 361 ) ) ( <= ( + T8 456 )( + T3 375 ) ) )
(or ( <= ( + T3 414 )  ( + T8 456 ) ) ( <= ( + T8 523 )( + T3 399 ) ) )
(or ( <= ( + T3 82 ) T9 ) ( <= ( + T9 58 ) T3 ) )
(or ( <= ( + T3 110 )  ( + T9 58 ) ) ( <= ( + T9 79 )( + T3 82 ) ) )
(or ( <= ( + T3 135 )  ( + T9 79 ) ) ( <= ( + T9 148 )( + T3 110 ) ) )
(or ( <= ( + T3 192 )  ( + T9 148 ) ) ( <= ( + T9 184 )( + T3 135 ) ) )
(or ( <= ( + T3 277 )  ( + T9 184 ) ) ( <= ( + T9 244 )( + T3 192 ) ) )
(or ( <= ( + T3 375 )  ( + T9 244 ) ) ( <= ( + T9 324 )( + T3 277 ) ) )
(or ( <= ( + T3 399 )  ( + T9 324 ) ) ( <= ( + T9 325 )( + T3 375 ) ) )
(or ( <= ( + T3 414 )  ( + T9 325 ) ) ( <= ( + T9 391 )( + T3 399 ) ) )
(or ( <= ( + T3 82 ) T10 ) ( <= ( + T10 22 ) T3 ) )
(or ( <= ( + T3 110 )  ( + T10 22 ) ) ( <= ( + T10 38 )( + T3 82 ) ) )
(or ( <= ( + T3 135 )  ( + T10 38 ) ) ( <= ( + T10 43 )( + T3 110 ) ) )
(or ( <= ( + T3 192 )  ( + T10 43 ) ) ( <= ( + T10 114 )( + T3 135 ) ) )
(or ( <= ( + T3 277 )  ( + T10 114 ) ) ( <= ( + T10 209 )( + T3 192 ) ) )
(or ( <= ( + T3 375 )  ( + T10 209 ) ) ( <= ( + T10 296 )( + T3 277 ) ) )
(or ( <= ( + T3 399 )  ( + T10 296 ) ) ( <= ( + T10 298 )( + T3 375 ) ) )
(or ( <= ( + T3 414 )  ( + T10 298 ) ) ( <= ( + T10 351 )( + T3 399 ) ) )
(or ( <= ( + T4 88 ) T5 ) ( <= ( + T5 92 ) T4 ) )
(or ( <= ( + T4 169 )  ( + T5 92 ) ) ( <= ( + T5 153 )( + T4 88 ) ) )
(or ( <= ( + T4 197 )  ( + T5 153 ) ) ( <= ( + T5 228 )( + T4 169 ) ) )
(or ( <= ( + T4 242 )  ( + T5 228 ) ) ( <= ( + T5 279 )( + T4 197 ) ) )
(or ( <= ( + T4 267 )  ( + T5 279 ) ) ( <= ( + T5 358 )( + T4 242 ) ) )
(or ( <= ( + T4 308 )  ( + T5 358 ) ) ( <= ( + T5 397 )( + T4 267 ) ) )
(or ( <= ( + T4 315 )  ( + T5 397 ) ) ( <= ( + T5 456 )( + T4 308 ) ) )
(or ( <= ( + T4 339 )  ( + T5 456 ) ) ( <= ( + T5 469 )( + T4 315 ) ) )
(or ( <= ( + T4 88 ) T6 ) ( <= ( + T6 55 ) T4 ) )
(or ( <= ( + T4 169 )  ( + T6 55 ) ) ( <= ( + T6 98 )( + T4 88 ) ) )
(or ( <= ( + T4 197 )  ( + T6 98 ) ) ( <= ( + T6 162 )( + T4 169 ) ) )
(or ( <= ( + T4 242 )  ( + T6 162 ) ) ( <= ( + T6 249 )( + T4 197 ) ) )
(or ( <= ( + T4 267 )  ( + T6 249 ) ) ( <= ( + T6 347 )( + T4 242 ) ) )
(or ( <= ( + T4 308 )  ( + T6 347 ) ) ( <= ( + T6 427 )( + T4 267 ) ) )
(or ( <= ( + T4 315 )  ( + T6 427 ) ) ( <= ( + T6 458 )( + T4 308 ) ) )
(or ( <= ( + T4 339 )  ( + T6 458 ) ) ( <= ( + T6 489 )( + T4 315 ) ) )
(or ( <= ( + T4 88 ) T7 ) ( <= ( + T7 7 ) T4 ) )
(or ( <= ( + T4 169 )  ( + T7 7 ) ) ( <= ( + T7 14 )( + T4 88 ) ) )
(or ( <= ( + T4 197 )  ( + T7 14 ) ) ( <= ( + T7 53 )( + T4 169 ) ) )
(or ( <= ( + T4 242 )  ( + T7 53 ) ) ( <= ( + T7 144 )( + T4 197 ) ) )
(or ( <= ( + T4 267 )  ( + T7 144 ) ) ( <= ( + T7 148 )( + T4 242 ) ) )
(or ( <= ( + T4 308 )  ( + T7 148 ) ) ( <= ( + T7 211 )( + T4 267 ) ) )
(or ( <= ( + T4 315 )  ( + T7 211 ) ) ( <= ( + T7 216 )( + T4 308 ) ) )
(or ( <= ( + T4 339 )  ( + T7 216 ) ) ( <= ( + T7 259 )( + T4 315 ) ) )
(or ( <= ( + T4 88 ) T8 ) ( <= ( + T8 95 ) T4 ) )
(or ( <= ( + T4 169 )  ( + T8 95 ) ) ( <= ( + T8 179 )( + T4 88 ) ) )
(or ( <= ( + T4 197 )  ( + T8 179 ) ) ( <= ( + T8 219 )( + T4 169 ) ) )
(or ( <= ( + T4 242 )  ( + T8 219 ) ) ( <= ( + T8 239 )( + T4 197 ) ) )
(or ( <= ( + T4 267 )  ( + T8 239 ) ) ( <= ( + T8 315 )( + T4 242 ) ) )
(or ( <= ( + T4 308 )  ( + T8 315 ) ) ( <= ( + T8 361 )( + T4 267 ) ) )
(or ( <= ( + T4 315 )  ( + T8 361 ) ) ( <= ( + T8 456 )( + T4 308 ) ) )
(or ( <= ( + T4 339 )  ( + T8 456 ) ) ( <= ( + T8 523 )( + T4 315 ) ) )
(or ( <= ( + T4 88 ) T9 ) ( <= ( + T9 58 ) T4 ) )
(or ( <= ( + T4 169 )  ( + T9 58 ) ) ( <= ( + T9 79 )( + T4 88 ) ) )
(or ( <= ( + T4 197 )  ( + T9 79 ) ) ( <= ( + T9 148 )( + T4 169 ) ) )
(or ( <= ( + T4 242 )  ( + T9 148 ) ) ( <= ( + T9 184 )( + T4 197 ) ) )
(or ( <= ( + T4 267 )  ( + T9 184 ) ) ( <= ( + T9 244 )( + T4 242 ) ) )
(or ( <= ( + T4 308 )  ( + T9 244 ) ) ( <= ( + T9 324 )( + T4 267 ) ) )
(or ( <= ( + T4 315 )  ( + T9 324 ) ) ( <= ( + T9 325 )( + T4 308 ) ) )
(or ( <= ( + T4 339 )  ( + T9 325 ) ) ( <= ( + T9 391 )( + T4 315 ) ) )
(or ( <= ( + T4 88 ) T10 ) ( <= ( + T10 22 ) T4 ) )
(or ( <= ( + T4 169 )  ( + T10 22 ) ) ( <= ( + T10 38 )( + T4 88 ) ) )
(or ( <= ( + T4 197 )  ( + T10 38 ) ) ( <= ( + T10 43 )( + T4 169 ) ) )
(or ( <= ( + T4 242 )  ( + T10 43 ) ) ( <= ( + T10 114 )( + T4 197 ) ) )
(or ( <= ( + T4 267 )  ( + T10 114 ) ) ( <= ( + T10 209 )( + T4 242 ) ) )
(or ( <= ( + T4 308 )  ( + T10 209 ) ) ( <= ( + T10 296 )( + T4 267 ) ) )
(or ( <= ( + T4 315 )  ( + T10 296 ) ) ( <= ( + T10 298 )( + T4 308 ) ) )
(or ( <= ( + T4 339 )  ( + T10 298 ) ) ( <= ( + T10 351 )( + T4 315 ) ) )
(or ( <= ( + T5 92 ) T6 ) ( <= ( + T6 55 ) T5 ) )
(or ( <= ( + T5 153 )  ( + T6 55 ) ) ( <= ( + T6 98 )( + T5 92 ) ) )
(or ( <= ( + T5 228 )  ( + T6 98 ) ) ( <= ( + T6 162 )( + T5 153 ) ) )
(or ( <= ( + T5 279 )  ( + T6 162 ) ) ( <= ( + T6 249 )( + T5 228 ) ) )
(or ( <= ( + T5 358 )  ( + T6 249 ) ) ( <= ( + T6 347 )( + T5 279 ) ) )
(or ( <= ( + T5 397 )  ( + T6 347 ) ) ( <= ( + T6 427 )( + T5 358 ) ) )
(or ( <= ( + T5 456 )  ( + T6 427 ) ) ( <= ( + T6 458 )( + T5 397 ) ) )
(or ( <= ( + T5 469 )  ( + T6 458 ) ) ( <= ( + T6 489 )( + T5 456 ) ) )
(or ( <= ( + T5 92 ) T7 ) ( <= ( + T7 7 ) T5 ) )
(or ( <= ( + T5 153 )  ( + T7 7 ) ) ( <= ( + T7 14 )( + T5 92 ) ) )
(or ( <= ( + T5 228 )  ( + T7 14 ) ) ( <= ( + T7 53 )( + T5 153 ) ) )
(or ( <= ( + T5 279 )  ( + T7 53 ) ) ( <= ( + T7 144 )( + T5 228 ) ) )
(or ( <= ( + T5 358 )  ( + T7 144 ) ) ( <= ( + T7 148 )( + T5 279 ) ) )
(or ( <= ( + T5 397 )  ( + T7 148 ) ) ( <= ( + T7 211 )( + T5 358 ) ) )
(or ( <= ( + T5 456 )  ( + T7 211 ) ) ( <= ( + T7 216 )( + T5 397 ) ) )
(or ( <= ( + T5 469 )  ( + T7 216 ) ) ( <= ( + T7 259 )( + T5 456 ) ) )
(or ( <= ( + T5 92 ) T8 ) ( <= ( + T8 95 ) T5 ) )
(or ( <= ( + T5 153 )  ( + T8 95 ) ) ( <= ( + T8 179 )( + T5 92 ) ) )
(or ( <= ( + T5 228 )  ( + T8 179 ) ) ( <= ( + T8 219 )( + T5 153 ) ) )
(or ( <= ( + T5 279 )  ( + T8 219 ) ) ( <= ( + T8 239 )( + T5 228 ) ) )
(or ( <= ( + T5 358 )  ( + T8 239 ) ) ( <= ( + T8 315 )( + T5 279 ) ) )
(or ( <= ( + T5 397 )  ( + T8 315 ) ) ( <= ( + T8 361 )( + T5 358 ) ) )
(or ( <= ( + T5 456 )  ( + T8 361 ) ) ( <= ( + T8 456 )( + T5 397 ) ) )
(or ( <= ( + T5 469 )  ( + T8 456 ) ) ( <= ( + T8 523 )( + T5 456 ) ) )
(or ( <= ( + T5 92 ) T9 ) ( <= ( + T9 58 ) T5 ) )
(or ( <= ( + T5 153 )  ( + T9 58 ) ) ( <= ( + T9 79 )( + T5 92 ) ) )
(or ( <= ( + T5 228 )  ( + T9 79 ) ) ( <= ( + T9 148 )( + T5 153 ) ) )
(or ( <= ( + T5 279 )  ( + T9 148 ) ) ( <= ( + T9 184 )( + T5 228 ) ) )
(or ( <= ( + T5 358 )  ( + T9 184 ) ) ( <= ( + T9 244 )( + T5 279 ) ) )
(or ( <= ( + T5 397 )  ( + T9 244 ) ) ( <= ( + T9 324 )( + T5 358 ) ) )
(or ( <= ( + T5 456 )  ( + T9 324 ) ) ( <= ( + T9 325 )( + T5 397 ) ) )
(or ( <= ( + T5 469 )  ( + T9 325 ) ) ( <= ( + T9 391 )( + T5 456 ) ) )
(or ( <= ( + T5 92 ) T10 ) ( <= ( + T10 22 ) T5 ) )
(or ( <= ( + T5 153 )  ( + T10 22 ) ) ( <= ( + T10 38 )( + T5 92 ) ) )
(or ( <= ( + T5 228 )  ( + T10 38 ) ) ( <= ( + T10 43 )( + T5 153 ) ) )
(or ( <= ( + T5 279 )  ( + T10 43 ) ) ( <= ( + T10 114 )( + T5 228 ) ) )
(or ( <= ( + T5 358 )  ( + T10 114 ) ) ( <= ( + T10 209 )( + T5 279 ) ) )
(or ( <= ( + T5 397 )  ( + T10 209 ) ) ( <= ( + T10 296 )( + T5 358 ) ) )
(or ( <= ( + T5 456 )  ( + T10 296 ) ) ( <= ( + T10 298 )( + T5 397 ) ) )
(or ( <= ( + T5 469 )  ( + T10 298 ) ) ( <= ( + T10 351 )( + T5 456 ) ) )
(or ( <= ( + T6 55 ) T7 ) ( <= ( + T7 7 ) T6 ) )
(or ( <= ( + T6 98 )  ( + T7 7 ) ) ( <= ( + T7 14 )( + T6 55 ) ) )
(or ( <= ( + T6 162 )  ( + T7 14 ) ) ( <= ( + T7 53 )( + T6 98 ) ) )
(or ( <= ( + T6 249 )  ( + T7 53 ) ) ( <= ( + T7 144 )( + T6 162 ) ) )
(or ( <= ( + T6 347 )  ( + T7 144 ) ) ( <= ( + T7 148 )( + T6 249 ) ) )
(or ( <= ( + T6 427 )  ( + T7 148 ) ) ( <= ( + T7 211 )( + T6 347 ) ) )
(or ( <= ( + T6 458 )  ( + T7 211 ) ) ( <= ( + T7 216 )( + T6 427 ) ) )
(or ( <= ( + T6 489 )  ( + T7 216 ) ) ( <= ( + T7 259 )( + T6 458 ) ) )
(or ( <= ( + T6 55 ) T8 ) ( <= ( + T8 95 ) T6 ) )
(or ( <= ( + T6 98 )  ( + T8 95 ) ) ( <= ( + T8 179 )( + T6 55 ) ) )
(or ( <= ( + T6 162 )  ( + T8 179 ) ) ( <= ( + T8 219 )( + T6 98 ) ) )
(or ( <= ( + T6 249 )  ( + T8 219 ) ) ( <= ( + T8 239 )( + T6 162 ) ) )
(or ( <= ( + T6 347 )  ( + T8 239 ) ) ( <= ( + T8 315 )( + T6 249 ) ) )
(or ( <= ( + T6 427 )  ( + T8 315 ) ) ( <= ( + T8 361 )( + T6 347 ) ) )
(or ( <= ( + T6 458 )  ( + T8 361 ) ) ( <= ( + T8 456 )( + T6 427 ) ) )
(or ( <= ( + T6 489 )  ( + T8 456 ) ) ( <= ( + T8 523 )( + T6 458 ) ) )
(or ( <= ( + T6 55 ) T9 ) ( <= ( + T9 58 ) T6 ) )
(or ( <= ( + T6 98 )  ( + T9 58 ) ) ( <= ( + T9 79 )( + T6 55 ) ) )
(or ( <= ( + T6 162 )  ( + T9 79 ) ) ( <= ( + T9 148 )( + T6 98 ) ) )
(or ( <= ( + T6 249 )  ( + T9 148 ) ) ( <= ( + T9 184 )( + T6 162 ) ) )
(or ( <= ( + T6 347 )  ( + T9 184 ) ) ( <= ( + T9 244 )( + T6 249 ) ) )
(or ( <= ( + T6 427 )  ( + T9 244 ) ) ( <= ( + T9 324 )( + T6 347 ) ) )
(or ( <= ( + T6 458 )  ( + T9 324 ) ) ( <= ( + T9 325 )( + T6 427 ) ) )
(or ( <= ( + T6 489 )  ( + T9 325 ) ) ( <= ( + T9 391 )( + T6 458 ) ) )
(or ( <= ( + T6 55 ) T10 ) ( <= ( + T10 22 ) T6 ) )
(or ( <= ( + T6 98 )  ( + T10 22 ) ) ( <= ( + T10 38 )( + T6 55 ) ) )
(or ( <= ( + T6 162 )  ( + T10 38 ) ) ( <= ( + T10 43 )( + T6 98 ) ) )
(or ( <= ( + T6 249 )  ( + T10 43 ) ) ( <= ( + T10 114 )( + T6 162 ) ) )
(or ( <= ( + T6 347 )  ( + T10 114 ) ) ( <= ( + T10 209 )( + T6 249 ) ) )
(or ( <= ( + T6 427 )  ( + T10 209 ) ) ( <= ( + T10 296 )( + T6 347 ) ) )
(or ( <= ( + T6 458 )  ( + T10 296 ) ) ( <= ( + T10 298 )( + T6 427 ) ) )
(or ( <= ( + T6 489 )  ( + T10 298 ) ) ( <= ( + T10 351 )( + T6 458 ) ) )
(or ( <= ( + T7 7 ) T8 ) ( <= ( + T8 95 ) T7 ) )
(or ( <= ( + T7 14 )  ( + T8 95 ) ) ( <= ( + T8 179 )( + T7 7 ) ) )
(or ( <= ( + T7 53 )  ( + T8 179 ) ) ( <= ( + T8 219 )( + T7 14 ) ) )
(or ( <= ( + T7 144 )  ( + T8 219 ) ) ( <= ( + T8 239 )( + T7 53 ) ) )
(or ( <= ( + T7 148 )  ( + T8 239 ) ) ( <= ( + T8 315 )( + T7 144 ) ) )
(or ( <= ( + T7 211 )  ( + T8 315 ) ) ( <= ( + T8 361 )( + T7 148 ) ) )
(or ( <= ( + T7 216 )  ( + T8 361 ) ) ( <= ( + T8 456 )( + T7 211 ) ) )
(or ( <= ( + T7 259 )  ( + T8 456 ) ) ( <= ( + T8 523 )( + T7 216 ) ) )
(or ( <= ( + T7 7 ) T9 ) ( <= ( + T9 58 ) T7 ) )
(or ( <= ( + T7 14 )  ( + T9 58 ) ) ( <= ( + T9 79 )( + T7 7 ) ) )
(or ( <= ( + T7 53 )  ( + T9 79 ) ) ( <= ( + T9 148 )( + T7 14 ) ) )
(or ( <= ( + T7 144 )  ( + T9 148 ) ) ( <= ( + T9 184 )( + T7 53 ) ) )
(or ( <= ( + T7 148 )  ( + T9 184 ) ) ( <= ( + T9 244 )( + T7 144 ) ) )
(or ( <= ( + T7 211 )  ( + T9 244 ) ) ( <= ( + T9 324 )( + T7 148 ) ) )
(or ( <= ( + T7 216 )  ( + T9 324 ) ) ( <= ( + T9 325 )( + T7 211 ) ) )
(or ( <= ( + T7 259 )  ( + T9 325 ) ) ( <= ( + T9 391 )( + T7 216 ) ) )
(or ( <= ( + T7 7 ) T10 ) ( <= ( + T10 22 ) T7 ) )
(or ( <= ( + T7 14 )  ( + T10 22 ) ) ( <= ( + T10 38 )( + T7 7 ) ) )
(or ( <= ( + T7 53 )  ( + T10 38 ) ) ( <= ( + T10 43 )( + T7 14 ) ) )
(or ( <= ( + T7 144 )  ( + T10 43 ) ) ( <= ( + T10 114 )( + T7 53 ) ) )
(or ( <= ( + T7 148 )  ( + T10 114 ) ) ( <= ( + T10 209 )( + T7 144 ) ) )
(or ( <= ( + T7 211 )  ( + T10 209 ) ) ( <= ( + T10 296 )( + T7 148 ) ) )
(or ( <= ( + T7 216 )  ( + T10 296 ) ) ( <= ( + T10 298 )( + T7 211 ) ) )
(or ( <= ( + T7 259 )  ( + T10 298 ) ) ( <= ( + T10 351 )( + T7 216 ) ) )
(or ( <= ( + T8 95 ) T9 ) ( <= ( + T9 58 ) T8 ) )
(or ( <= ( + T8 179 )  ( + T9 58 ) ) ( <= ( + T9 79 )( + T8 95 ) ) )
(or ( <= ( + T8 219 )  ( + T9 79 ) ) ( <= ( + T9 148 )( + T8 179 ) ) )
(or ( <= ( + T8 239 )  ( + T9 148 ) ) ( <= ( + T9 184 )( + T8 219 ) ) )
(or ( <= ( + T8 315 )  ( + T9 184 ) ) ( <= ( + T9 244 )( + T8 239 ) ) )
(or ( <= ( + T8 361 )  ( + T9 244 ) ) ( <= ( + T9 324 )( + T8 315 ) ) )
(or ( <= ( + T8 456 )  ( + T9 324 ) ) ( <= ( + T9 325 )( + T8 361 ) ) )
(or ( <= ( + T8 523 )  ( + T9 325 ) ) ( <= ( + T9 391 )( + T8 456 ) ) )
(or ( <= ( + T8 95 ) T10 ) ( <= ( + T10 22 ) T8 ) )
(or ( <= ( + T8 179 )  ( + T10 22 ) ) ( <= ( + T10 38 )( + T8 95 ) ) )
(or ( <= ( + T8 219 )  ( + T10 38 ) ) ( <= ( + T10 43 )( + T8 179 ) ) )
(or ( <= ( + T8 239 )  ( + T10 43 ) ) ( <= ( + T10 114 )( + T8 219 ) ) )
(or ( <= ( + T8 315 )  ( + T10 114 ) ) ( <= ( + T10 209 )( + T8 239 ) ) )
(or ( <= ( + T8 361 )  ( + T10 209 ) ) ( <= ( + T10 296 )( + T8 315 ) ) )
(or ( <= ( + T8 456 )  ( + T10 296 ) ) ( <= ( + T10 298 )( + T8 361 ) ) )
(or ( <= ( + T8 523 )  ( + T10 298 ) ) ( <= ( + T10 351 )( + T8 456 ) ) )
(or ( <= ( + T9 58 ) T10 ) ( <= ( + T10 22 ) T9 ) )
(or ( <= ( + T9 79 )  ( + T10 22 ) ) ( <= ( + T10 38 )( + T9 58 ) ) )
(or ( <= ( + T9 148 )  ( + T10 38 ) ) ( <= ( + T10 43 )( + T9 79 ) ) )
(or ( <= ( + T9 184 )  ( + T10 43 ) ) ( <= ( + T10 114 )( + T9 148 ) ) )
(or ( <= ( + T9 244 )  ( + T10 114 ) ) ( <= ( + T10 209 )( + T9 184 ) ) )
(or ( <= ( + T9 324 )  ( + T10 209 ) ) ( <= ( + T10 296 )( + T9 244 ) ) )
(or ( <= ( + T9 325 )  ( + T10 296 ) ) ( <= ( + T10 298 )( + T9 324 ) ) )
(or ( <= ( + T9 391 )  ( + T10 298 ) ) ( <= ( + T10 351 )( + T9 325 ) ) )
( <= ( + T1 406 ) Z)
( <= ( + T2 429 ) Z)
( <= ( + T3 414 ) Z)
( <= ( + T4 339 ) Z)
( <= ( + T5 469 ) Z)
( <= ( + T6 489 ) Z)
( <= ( + T7 259 ) Z)
( <= ( + T8 523 ) Z)
( <= ( + T9 391 ) Z)
( <= ( + T10 351 ) Z)
( >= T1 0 )
( >= T2 0 )
( >= T3 0 )
( >= T4 0 )
( >= T5 0 )
( >= T6 0 )
( >= T7 0 )
( >= T8 0 )
( >= T9 0 )
( >= T10 0 )
) )
)(=> $phi $goal))))